numNurses = 186;
hours = 70;
demand = [41 26 13 17 22 2 36 16 35 42 26 11 43 10 24 28 0 34 46 3 33 14 14 0 17 27 10 30 11 14 20 28 31 3 17 32 10 18 41 29 23 38 33 25 31 5 23 14 23 7 4 29 9 28 7 0 35 34 35 25 1 33 16 24 35 15 4 25 8 29];
minHours = 2;
maxHours = 34;
maxConsec = 16;
maxPresence = 60;